; benchmark generated from python API
(set-info :status unknown)
(declare-datatypes ((RealState 0)) (((RMk1 (rval1 Real)) (RMk2 (rval2 Real)))))
 (assert
 (forall ((|v11:0| Real) )(exists ((|v10:1_st| RealState) (val!1542 Real) )(forall ((|v9:2| Real) )(exists ((|v8:3_st| RealState) (val!1543 Real) )(forall ((|v7:4| Real) )(exists ((|v6:5_st| RealState) (val!1544 Real) )(forall ((|v5:6| Real) )(exists ((|v4:7_st| RealState) (val!1545 Real) )(forall ((|v3:8| Real) )(exists ((|v2:9_st| RealState) (val!1546 Real) )(forall ((|v1:10| Real) )(exists ((|v0:11_st| RealState) (val!1547 Real) )(let ((?x922 (- 18.0)))
 (let ((?x2110 (* ?x922 |v5:6|)))
 (let ((?x960 (+ (+ (* (- 11.0) (rval2 |v8:3_st|)) (* (- 15.0) (rval2 |v6:5_st|))) (* (- 19.0) (rval2 |v6:5_st|)))))
 (let ((?x653 (rval2 |v10:1_st|)))
 (let ((?x1041 (* 2.0 ?x653)))
 (let ((?x1769 (+ (+ (* (- 17.0) (rval2 |v4:7_st|)) (* 3.0 (rval2 |v6:5_st|))) (* 16.0 |v11:0|))))
 (let ((?x1179 (- 10.0)))
 (let ((?x1883 (rval2 |v0:11_st|)))
 (let ((?x157 (- 12.0)))
 (let ((?x1900 (* ?x157 ?x1883)))
 (let ((?x1844 (+ (+ (* (- 2.0) (rval2 |v4:7_st|)) (* 17.0 (rval2 |v8:3_st|))) (* 14.0 |v3:8|))))
 (let (($x2101 (or (and (<= (+ ?x1844 ?x1900) ?x1179) (<= (+ ?x1769 ?x1041) 16.0)) (<= (+ ?x960 ?x2110) 13.0))))
 (let ((?x850 (- 4.0)))
 (let ((?x1164 (rval2 |v2:9_st|)))
 (let ((?x682 (- 5.0)))
 (let ((?x1859 (* ?x682 ?x1164)))
 (let (($x2270 (<= (+ (+ (+ (* ?x157 ?x1164) (* 2.0 |v11:0|)) ?x1859) (* ?x682 ?x653)) ?x850)))
 (let ((?x577 (- 11.0)))
 (let ((?x1817 (+ (+ (+ (* (- 8.0) |v3:8|) (* ?x157 |v3:8|)) (* (- 1.0) |v7:4|)) (* 14.0 |v9:2|))))
 (let ((?x2292 (+ (+ (+ (* 7.0 (rval2 |v4:7_st|)) |v9:2|) (* 3.0 |v7:4|)) (* (- 16.0) |v7:4|))))
 (let ((?x2700 (+ (+ (+ (* (- 13.0) |v1:10|) (* 5.0 |v3:8|)) (* 19.0 (rval2 |v4:7_st|))) (* ?x1179 |v9:2|))))
 (let (($x1603 (and (or (<= ?x2700 18.0) (<= ?x2292 2.0)) (and (<= ?x1817 ?x577) $x2270))))
 (let ((?x246 (- 6.0)))
 (let ((?x1016 (+ (+ (+ (* (- 8.0) |v5:6|) (* (- 3.0) |v9:2|)) (* 17.0 |v7:4|)) (* 9.0 |v7:4|))))
 (let ((?x188 (rval2 |v4:7_st|)))
 (let ((?x534 (- 17.0)))
 (let ((?x1086 (* ?x534 ?x188)))
 (let ((?x1029 (+ (+ (+ (* (- 3.0) ?x653) (* (- 3.0) ?x653)) (* 9.0 ?x1883)) ?x1086)))
 (let ((?x415 (- 1.0)))
 (let ((?x256 (- 20.0)))
 (let ((?x2213 (* ?x256 |v1:10|)))
 (let ((?x2335 (+ (+ (+ (* (- 19.0) ?x188) (* 2.0 (rval2 |v8:3_st|))) (* 8.0 |v5:6|)) ?x2213)))
 (let ((?x537 (+ (+ (+ (* (- 15.0) ?x1164) (* 11.0 ?x188)) (* 12.0 |v9:2|)) (* ?x682 |v11:0|))))
 (let (($x1366 (or (or (<= ?x537 15.0) (<= ?x2335 ?x415)) (and (<= ?x1029 ?x157) (<= ?x1016 ?x246)))))
 (let ((?x1973 (* 7.0 |v1:10|)))
 (let (($x32 (<= (+ (+ (+ (* ?x534 ?x653) (* 2.0 ?x188)) (* (- 14.0) |v9:2|)) ?x1973) 7.0)))
 (let ((?x260 (+ (+ (+ (* ?x922 |v11:0|) (* (- 3.0) ?x653)) (* (- 2.0) |v9:2|)) (* ?x415 |v11:0|))))
 (let ((?x1130 (+ (+ (+ (* 18.0 ?x1883) (* ?x682 |v3:8|)) (* 8.0 |v11:0|)) (* 19.0 |v9:2|))))
 (let (($x2315 (<= (+ (+ (+ (* ?x157 |v3:8|) (* 3.0 ?x188)) (* 9.0 |v1:10|)) ?x1859) 7.0)))
 (let (($x1797 (and (and (and $x2315 (<= ?x1130 3.0)) (and (<= ?x260 ?x850) $x32)) $x1366)))
 (let ((?x1445 (+ (+ (+ (* 11.0 ?x1164) (* (- 19.0) |v9:2|)) (* (- 3.0) ?x653)) (* 13.0 ?x653))))
 (let (($x1181 (<= (+ (+ (+ (* (- 15.0) |v5:6|) (* ?x246 |v5:6|)) (* ?x256 |v7:4|)) ?x1973) 5.0)))
 (let ((?x1608 (* 12.0 |v3:8|)))
 (let ((?x353 (* 12.0 ?x1164)))
 (let ((?x464 (+ (+ (+ (* (- 9.0) (rval2 |v6:5_st|)) (* 17.0 (rval2 |v8:3_st|))) ?x353) ?x1608)))
 (let ((?x2201 (* 18.0 |v7:4|)))
 (let ((?x2172 (+ (+ (+ (* 2.0 |v5:6|) (* (- 9.0) |v5:6|)) (* 3.0 |v1:10|)) ?x2201)))
 (let (($x2478 (or (and (<= ?x2172 18.0) (<= ?x464 ?x246)) (or $x1181 (<= ?x1445 8.0)))))
 (let ((?x545 (rval2 |v6:5_st|)))
 (let ((?x203 (* 11.0 ?x545)))
 (let ((?x374 (+ (+ (* 7.0 ?x1164) (* (- 13.0) (rval2 |v8:3_st|))) (* (- 15.0) (rval2 |v8:3_st|)))))
 (let ((?x2166 (+ (+ (+ (* ?x415 |v9:2|) (* 0.0 (rval2 |v8:3_st|))) (* (- 7.0) |v3:8|)) (* ?x246 ?x545))))
 (let ((?x126 (* 3.0 |v9:2|)))
 (let (($x361 (<= (+ (+ (+ (* (- 13.0) ?x1883) (* (- 8.0) |v5:6|)) ?x2201) ?x126) 16.0)))
 (let ((?x196 (* 2.0 ?x188)))
 (let ((?x1630 (+ (+ (+ (* ?x850 (rval2 |v8:3_st|)) (* ?x415 ?x1164)) (* (- 19.0) ?x188)) ?x196)))
 (let (($x1177 (or (or (<= ?x1630 ?x922) $x361) (or (<= ?x2166 5.0) (<= (+ ?x374 ?x203) ?x1179)))))
 (let ((?x1427 (+ (+ (+ (* 17.0 ?x1164) (* (- 7.0) ?x653)) (* 15.0 ?x1883)) (* ?x1179 (rval2 |v8:3_st|)))))
 (let ((?x132 (- 13.0)))
 (let ((?x1474 (+ (+ (+ (* 13.0 ?x545) (* 17.0 ?x188)) (* 12.0 |v5:6|)) (* ?x850 ?x545))))
 (let ((?x270 (- 14.0)))
 (let ((?x1865 (* 17.0 ?x1883)))
 (let (($x2168 (<= (+ (+ (+ (* (- 8.0) ?x1164) (* 0.0 ?x545)) ?x2201) ?x1865) ?x270)))
 (let ((?x641 (- 3.0)))
 (let ((?x898 (* ?x641 |v11:0|)))
 (let ((?x1484 (+ (+ (+ (* 18.0 (rval2 |v8:3_st|)) (* (- 7.0) ?x188)) ?x898) (* 14.0 ?x653))))
 (let ((?x2160 (* 19.0 |v5:6|)))
 (let (($x108 (<= (+ (+ (+ (* (- 7.0) ?x653) (* ?x850 |v1:10|)) (* 10.0 |v3:8|)) ?x2160) ?x850)))
 (let ((?x470 (* ?x534 |v3:8|)))
 (let ((?x97 (+ (+ (+ (* ?x577 (rval2 |v8:3_st|)) (* ?x577 ?x1883)) (* 12.0 ?x188)) ?x470)))
 (let ((?x1681 (* 6.0 |v3:8|)))
 (let (($x932 (<= (+ (+ (+ (* 19.0 ?x653) (* (- 15.0) ?x653)) (* ?x246 |v11:0|)) ?x1681) 16.0)))
 (let (($x1507 (or (and (or $x932 (<= ?x97 ?x256)) (and $x108 (<= ?x1484 ?x415))) (and (and $x2168 (<= ?x1474 ?x132)) (<= ?x1427 ?x246)))))
 (let ((?x811 (+ (+ (+ (* 15.0 |v1:10|) (* (- 7.0) ?x1883)) (* ?x922 (rval2 |v8:3_st|))) ?x1900)))
 (let ((?x409 (- 9.0)))
 (let (($x261 (<= (+ (+ (+ (* 9.0 ?x1164) (* 4.0 |v11:0|)) ?x1164) (* ?x132 ?x1164)) ?x409)))
 (let (($x1744 (<= (+ (+ (+ (* ?x256 ?x545) (* ?x409 |v9:2|)) ?x898) (* 10.0 |v9:2|)) 6.0)))
 (let ((?x954 (+ (+ (+ (* (- 15.0) ?x653) (* ?x577 (rval2 |v8:3_st|))) (* ?x682 |v1:10|)) (* 8.0 ?x653))))
 (let ((?x697 (+ (+ (+ (* ?x256 ?x1883) (* 16.0 ?x1164)) (* ?x850 ?x653)) (* (- 15.0) |v9:2|))))
 (let (($x588 (or (<= ?x697 ?x415) (or (and (<= ?x954 ?x256) $x1744) (or $x261 (<= ?x811 ?x132))))))
 (let ((?x1245 (* 2.0 |v3:8|)))
 (let ((?x2578 (+ (+ (+ (* 12.0 (rval2 |v8:3_st|)) (* 9.0 |v5:6|)) (* 10.0 ?x545)) ?x1245)))
 (let ((?x1169 (rval2 |v8:3_st|)))
 (let ((?x788 (- 19.0)))
 (let ((?x1350 (* ?x788 ?x1169)))
 (let (($x1040 (<= (+ (+ (+ (* ?x788 ?x1164) (* 10.0 |v11:0|)) (* (- 2.0) ?x653)) ?x1350) 15.0)))
 (let ((?x1809 (+ (+ (+ (* 8.0 |v5:6|) (* 3.0 ?x653)) (* 8.0 ?x1164)) (* (- 7.0) |v5:6|))))
 (let ((?x2109 (+ (+ (+ (* 7.0 ?x1169) (* ?x415 ?x545)) (* 17.0 ?x545)) (* ?x1179 ?x188))))
 (let ((?x326 (- 7.0)))
 (let ((?x618 (* 3.0 |v11:0|)))
 (let (($x1093 (<= (+ (+ (+ (* ?x409 |v9:2|) (* ?x788 |v9:2|)) (* ?x157 |v9:2|)) ?x618) ?x326)))
 (let ((?x964 (- 8.0)))
 (let ((?x579 (* 4.0 ?x1169)))
 (let (($x315 (<= (+ (+ (+ (* 20.0 ?x545) (* 8.0 ?x545)) (* ?x326 ?x188)) ?x579) ?x964)))
 (let ((?x50 (- 15.0)))
 (let ((?x1467 (+ (+ (+ (* 4.0 ?x1164) (* 0.0 ?x188)) (* 6.0 |v9:2|)) (* ?x326 |v1:10|))))
 (let (($x2206 (and (and (and (<= ?x1467 ?x50) $x315) (or $x1093 (<= ?x2109 ?x577))) (and (<= ?x1809 18.0) (or $x1040 (<= ?x2578 19.0))))))
 (let (($x1399 (<= (+ (+ (+ (* 0.0 |v11:0|) ?x1350) (* 18.0 ?x545)) (* 19.0 ?x545)) 9.0)))
 (let ((?x1210 (+ (+ (+ (* 7.0 ?x1164) (* (- 2.0) |v1:10|)) (* ?x409 |v7:4|)) (* 6.0 |v7:4|))))
 (let (($x1453 (<= (+ (+ (+ ?x1865 (* 7.0 ?x1169)) (* ?x922 |v3:8|)) (* ?x246 |v11:0|)) 2.0)))
 (let ((?x424 (* 20.0 ?x1883)))
 (let (($x833 (<= (+ (+ (+ (* ?x415 ?x1883) (* (- 16.0) ?x1164)) (* 14.0 |v7:4|)) ?x424) ?x1179)))
 (let ((?x1104 (* 15.0 ?x1169)))
 (let (($x711 (<= (+ (+ (+ (* 6.0 ?x188) (* ?x132 ?x1883)) (* ?x788 ?x1164)) ?x1104) 9.0)))
 (let (($x586 (<= (+ (+ (+ (* 17.0 |v7:4|) ?x2213) (* ?x922 ?x545)) (* 15.0 ?x653)) ?x682)))
 (let ((?x1048 (+ (+ (+ (* 2.0 |v1:10|) (* 6.0 ?x1883)) (* 18.0 |v9:2|)) (* ?x682 |v9:2|))))
 (let ((?x114 (- 2.0)))
 (let ((?x2852 (* ?x114 |v1:10|)))
 (let (($x2454 (<= (+ (+ (+ (* 17.0 |v5:6|) (* ?x534 |v5:6|)) (* 0.0 ?x1164)) ?x2852) ?x326)))
 (let ((?x504 (* 9.0 |v5:6|)))
 (let (($x655 (<= (+ (+ (+ (* 16.0 |v9:2|) (* 0.0 |v1:10|)) (* ?x132 ?x188)) ?x504) ?x246)))
 (let (($x935 (or (or (or $x655 $x2454) (or (<= ?x1048 0.0) $x586)) (and (or $x711 $x833) (or $x1453 (<= ?x1210 9.0))))))
 (let (($x107 (and (or (or $x935 $x1399) (and $x2206 $x588)) (and (or $x1507 (or $x1177 $x2478)) (or $x1797 (and $x1603 $x2101))))))
 (let (($x1423 (not (= |v0:11_st| (RMk1 val!1547)))))
 (let (($x937 (not (= |v2:9_st| (RMk1 val!1546)))))
 (let (($x1277 (not (= |v4:7_st| (RMk1 val!1545)))))
 (let (($x1151 (not (= |v6:5_st| (RMk1 val!1544)))))
 (let (($x1011 (not (= |v8:3_st| (RMk1 val!1543)))))
 (let (($x439 (not (= |v10:1_st| (RMk1 val!1542)))))
 (and $x439 $x1011 $x1151 $x1277 $x937 $x1423 $x107)))))))))))))))))))))))))))))))))))))))))))))))))))))))))))))))))))))))))))))))))))))))))))))))))))))))))))))))))))))))))
 )
 )
 )
 )
 )
 )
 )
 )
 )
 )
 )
 )
(check-sat)
